#   Hz   S  RI   R   50
!
0.000000e+00 -9.377912e-01 0.000000e+00
7.500000e+07 -9.373209e-01 2.965130e-02
1.500000e+08 -9.359114e-01 5.925885e-02
2.250000e+08 -9.335667e-01 8.877909e-02
3.000000e+08 -9.302936e-01 1.181689e-01
3.750000e+08 -9.261016e-01 1.473858e-01
4.500000e+08 -9.210026e-01 1.763881e-01
5.250000e+08 -9.150113e-01 2.051351e-01
6.000000e+08 -9.081444e-01 2.335875e-01
6.750000e+08 -9.004212e-01 2.617071e-01
7.500000e+08 -8.918629e-01 2.894574e-01
8.250000e+08 -8.824930e-01 3.168036e-01
9.000000e+08 -8.723366e-01 3.437125e-01
9.750000e+08 -8.614206e-01 3.701531e-01
1.050000e+09 -8.497733e-01 3.960962e-01
1.125000e+09 -8.374246e-01 4.215148e-01
1.200000e+09 -8.244053e-01 4.463841e-01
1.275000e+09 -8.107473e-01 4.706813e-01
1.350000e+09 -7.964834e-01 4.943861e-01
1.425000e+09 -7.816467e-01 5.174803e-01
1.500000e+09 -7.662711e-01 5.399480e-01
1.575000e+09 -7.503907e-01 5.617755e-01
1.650000e+09 -7.340395e-01 5.829513e-01
1.725000e+09 -7.172517e-01 6.034661e-01
1.800000e+09 -7.000612e-01 6.233126e-01
1.875000e+09 -6.825016e-01 6.424856e-01
1.950000e+09 -6.646059e-01 6.609819e-01
2.025000e+09 -6.464067e-01 6.788000e-01
2.100000e+09 -6.279358e-01 6.959404e-01
2.175000e+09 -6.092241e-01 7.124051e-01
2.250000e+09 -5.903017e-01 7.281978e-01
2.325000e+09 -5.711979e-01 7.433234e-01
2.400000e+09 -5.519406e-01 7.577885e-01
2.475000e+09 -5.325570e-01 7.716008e-01
2.550000e+09 -5.130729e-01 7.847691e-01
2.625000e+09 -4.935130e-01 7.973031e-01
2.700000e+09 -4.739009e-01 8.092137e-01
2.775000e+09 -4.542589e-01 8.205124e-01
2.850000e+09 -4.346081e-01 8.312115e-01
2.925000e+09 -4.149683e-01 8.413238e-01
3.000000e+09 -3.953584e-01 8.508627e-01
3.075000e+09 -3.757958e-01 8.598421e-01
3.150000e+09 -3.562968e-01 8.682759e-01
3.225000e+09 -3.368767e-01 8.761786e-01
3.300000e+09 -3.175496e-01 8.835648e-01
3.375000e+09 -2.983285e-01 8.904490e-01
3.450000e+09 -2.792254e-01 8.968459e-01
3.525000e+09 -2.602513e-01 9.027703e-01
3.600000e+09 -2.414162e-01 9.082368e-01
3.675000e+09 -2.227294e-01 9.132597e-01
3.750000e+09 -2.041990e-01 9.178534e-01
3.825000e+09 -1.858327e-01 9.220321e-01
3.900000e+09 -1.676370e-01 9.258097e-01
3.975000e+09 -1.496181e-01 9.291997e-01
4.050000e+09 -1.317812e-01 9.322155e-01
4.125000e+09 -1.141310e-01 9.348702e-01
4.200000e+09 -9.667162e-02 9.371765e-01
4.275000e+09 -7.940670e-02 9.391469e-01
4.350000e+09 -6.233929e-02 9.407933e-01
4.425000e+09 -4.547199e-02 9.421276e-01
4.500000e+09 -2.880701e-02 9.431611e-01
4.575000e+09 -1.234616e-02 9.439049e-01
4.650000e+09 3.909111e-03 9.443696e-01
4.725000e+09 1.995767e-02 9.445658e-01
4.800000e+09 3.579867e-02 9.445034e-01
4.875000e+09 5.143153e-02 9.441921e-01
4.950000e+09 6.685593e-02 9.436414e-01
5.025000e+09 8.207175e-02 9.428603e-01
5.100000e+09 9.707907e-02 9.418578e-01
5.175000e+09 1.118781e-01 9.406422e-01
5.250000e+09 1.264694e-01 9.392219e-01
5.325000e+09 1.408534e-01 9.376048e-01
5.400000e+09 1.550308e-01 9.357987e-01
5.475000e+09 1.690024e-01 9.338111e-01
5.550000e+09 1.827693e-01 9.316492e-01
5.625000e+09 1.963323e-01 9.293201e-01
5.700000e+09 2.096926e-01 9.268305e-01
5.775000e+09 2.228515e-01 9.241872e-01
5.850000e+09 2.358101e-01 9.213965e-01
5.925000e+09 2.485698e-01 9.184647e-01
6.000000e+09 2.611321e-01 9.153979e-01
6.075000e+09 2.734984e-01 9.122020e-01
6.150000e+09 2.856703e-01 9.088827e-01
6.225000e+09 2.976494e-01 9.054457e-01
6.300000e+09 3.094373e-01 9.018962e-01
6.375000e+09 3.210358e-01 8.982397e-01
6.450000e+09 3.324466e-01 8.944813e-01
6.525000e+09 3.436716e-01 8.906260e-01
6.600000e+09 3.547127e-01 8.866787e-01
6.675000e+09 3.655717e-01 8.826441e-01
6.750000e+09 3.762507e-01 8.785268e-01
6.825000e+09 3.867517e-01 8.743313e-01
6.900000e+09 3.970767e-01 8.700620e-01
6.975000e+09 4.072280e-01 8.657231e-01
7.050000e+09 4.172076e-01 8.613187e-01
7.125000e+09 4.270178e-01 8.568527e-01
7.200000e+09 4.366608e-01 8.523292e-01
7.275000e+09 4.461389e-01 8.477517e-01
7.350000e+09 4.554545e-01 8.431240e-01
7.425000e+09 4.646099e-01 8.384495e-01
7.500000e+09 4.736075e-01 8.337315e-01
7.575000e+09 4.824496e-01 8.289733e-01
7.650000e+09 4.911389e-01 8.241781e-01
7.725000e+09 4.996776e-01 8.193489e-01
7.800000e+09 5.080684e-01 8.144885e-01
7.875000e+09 5.163136e-01 8.095996e-01
7.950000e+09 5.244159e-01 8.046850e-01
8.025000e+09 5.323777e-01 7.997472e-01
8.100000e+09 5.402015e-01 7.947885e-01
8.175000e+09 5.478898e-01 7.898113e-01
8.250000e+09 5.554452e-01 7.848177e-01
8.325000e+09 5.628701e-01 7.798098e-01
8.400000e+09 5.701671e-01 7.747895e-01
8.475000e+09 5.773386e-01 7.697587e-01
8.550000e+09 5.843870e-01 7.647191e-01
8.625000e+09 5.913148e-01 7.596723e-01
8.700000e+09 5.981244e-01 7.546199e-01
8.775000e+09 6.048180e-01 7.495633e-01
8.850000e+09 6.113982e-01 7.445038e-01
8.925000e+09 6.178670e-01 7.394428e-01
9.000000e+09 6.242269e-01 7.343812e-01
9.075000e+09 6.304800e-01 7.293203e-01
9.150000e+09 6.366284e-01 7.242611e-01
9.225000e+09 6.426742e-01 7.192044e-01
9.300000e+09 6.486196e-01 7.141511e-01
9.375000e+09 6.544666e-01 7.091020e-01
9.450000e+09 6.602170e-01 7.040578e-01
9.525000e+09 6.658729e-01 6.990192e-01
9.600000e+09 6.714361e-01 6.939868e-01
9.675000e+09 6.769083e-01 6.889612e-01
9.750000e+09 6.822913e-01 6.839429e-01
9.825000e+09 6.875868e-01 6.789323e-01
9.900000e+09 6.927965e-01 6.739299e-01
9.975000e+09 6.979220e-01 6.689362e-01
1.005000e+10 7.029647e-01 6.639514e-01
1.012500e+10 7.079262e-01 6.589759e-01
1.020000e+10 7.128079e-01 6.540101e-01
1.027500e+10 7.176112e-01 6.490543e-01
1.035000e+10 7.223374e-01 6.441087e-01
1.042500e+10 7.269879e-01 6.391736e-01
1.050000e+10 7.315639e-01 6.342493e-01
1.057500e+10 7.360666e-01 6.293360e-01
1.065000e+10 7.404972e-01 6.244340e-01
1.072500e+10 7.448568e-01 6.195435e-01
1.080000e+10 7.491465e-01 6.146647e-01
1.087500e+10 7.533675e-01 6.097979e-01
1.095000e+10 7.575208e-01 6.049433e-01
1.102500e+10 7.616074e-01 6.001012e-01
1.110000e+10 7.656282e-01 5.952717e-01
1.117500e+10 7.695843e-01 5.904550e-01
1.125000e+10 7.734767e-01 5.856516e-01
1.132500e+10 7.773062e-01 5.808614e-01
1.140000e+10 7.810739e-01 5.760849e-01
1.147500e+10 7.847805e-01 5.713221e-01
1.155000e+10 7.884270e-01 5.665734e-01
1.162500e+10 7.920143e-01 5.618390e-01
1.170000e+10 7.955433e-01 5.571192e-01
1.177500e+10 7.990148e-01 5.524140e-01
1.185000e+10 8.024297e-01 5.477239e-01
1.192500e+10 8.057888e-01 5.430490e-01
1.200000e+10 8.090930e-01 5.383895e-01
1.207500e+10 8.123432e-01 5.337456e-01
1.215000e+10 8.155402e-01 5.291176e-01
1.222500e+10 8.186848e-01 5.245057e-01
1.230000e+10 8.217779e-01 5.199100e-01
1.237500e+10 8.248204e-01 5.153308e-01
1.245000e+10 8.278129e-01 5.107682e-01
1.252500e+10 8.307565e-01 5.062223e-01
1.260000e+10 8.336519e-01 5.016934e-01
1.267500e+10 8.364999e-01 4.971816e-01
1.275000e+10 8.393014e-01 4.926870e-01
1.282500e+10 8.420572e-01 4.882096e-01
1.290000e+10 8.447681e-01 4.837497e-01
1.297500e+10 8.474349e-01 4.793072e-01
1.305000e+10 8.500584e-01 4.748822e-01
1.312500e+10 8.526394e-01 4.704748e-01
1.320000e+10 8.551787e-01 4.660850e-01
1.327500e+10 8.576770e-01 4.617128e-01
1.335000e+10 8.601352e-01 4.573582e-01
1.342500e+10 8.625540e-01 4.530212e-01
1.350000e+10 8.649341e-01 4.487017e-01
1.357500e+10 8.672762e-01 4.443997e-01
1.365000e+10 8.695811e-01 4.401150e-01
1.372500e+10 8.718495e-01 4.358477e-01
1.380000e+10 8.740819e-01 4.315976e-01
1.387500e+10 8.762792e-01 4.273645e-01
1.395000e+10 8.784419e-01 4.231484e-01
1.402500e+10 8.805707e-01 4.189492e-01
1.410000e+10 8.826661e-01 4.147666e-01
1.417500e+10 8.847288e-01 4.106005e-01
1.425000e+10 8.867593e-01 4.064508e-01
1.432500e+10 8.887582e-01 4.023172e-01
1.440000e+10 8.907260e-01 3.981996e-01
1.447500e+10 8.926632e-01 3.940978e-01
1.455000e+10 8.945702e-01 3.900116e-01
1.462500e+10 8.964476e-01 3.859409e-01
1.470000e+10 8.982957e-01 3.818853e-01
1.477500e+10 9.001151e-01 3.778448e-01
1.485000e+10 9.019061e-01 3.738192e-01
1.492500e+10 9.036691e-01 3.698082e-01
1.500000e+10 9.054044e-01 3.658117e-01
1.507500e+10 9.071125e-01 3.618296e-01
1.515000e+10 9.087936e-01 3.578615e-01
1.522500e+10 9.104480e-01 3.539074e-01
1.530000e+10 9.120762e-01 3.499672e-01
1.537500e+10 9.136783e-01 3.460406e-01
1.545000e+10 9.152546e-01 3.421275e-01
1.552500e+10 9.168055e-01 3.382278e-01
1.560000e+10 9.183311e-01 3.343414e-01
1.567500e+10 9.198318e-01 3.304681e-01
1.575000e+10 9.213077e-01 3.266079e-01
1.582500e+10 9.227590e-01 3.227607e-01
1.590000e+10 9.241862e-01 3.189264e-01
1.597500e+10 9.255892e-01 3.151049e-01
1.605000e+10 9.269684e-01 3.112962e-01
1.612500e+10 9.283241e-01 3.075001e-01
1.620000e+10 9.296563e-01 3.037168e-01
1.627500e+10 9.309654e-01 2.999460e-01
1.635000e+10 9.322515e-01 2.961879e-01
1.642500e+10 9.335149e-01 2.924423e-01
1.650000e+10 9.347558e-01 2.887094e-01
1.657500e+10 9.359745e-01 2.849890e-01
1.665000e+10 9.371711e-01 2.812811e-01
1.672500e+10 9.383460e-01 2.775858e-01
1.680000e+10 9.394992e-01 2.739031e-01
1.687500e+10 9.406312e-01 2.702330e-01
1.695000e+10 9.417422e-01 2.665754e-01
1.702500e+10 9.428323e-01 2.629304e-01
1.710000e+10 9.439020e-01 2.592980e-01
1.717500e+10 9.449514e-01 2.556782e-01
1.725000e+10 9.459808e-01 2.520710e-01
1.732500e+10 9.469905e-01 2.484764e-01
1.740000e+10 9.479808e-01 2.448943e-01
1.747500e+10 9.489520e-01 2.413248e-01
1.755000e+10 9.499044e-01 2.377679e-01
1.762500e+10 9.508382e-01 2.342234e-01
1.770000e+10 9.517538e-01 2.306915e-01
1.777500e+10 9.526515e-01 2.271719e-01
1.785000e+10 9.535315e-01 2.236648e-01
1.792500e+10 9.543941e-01 2.201699e-01
1.800000e+10 9.552397e-01 2.166873e-01
1.807500e+10 9.560686e-01 2.132169e-01
1.815000e+10 9.568810e-01 2.097585e-01
1.822500e+10 9.576772e-01 2.063121e-01
1.830000e+10 9.584575e-01 2.028776e-01
1.837500e+10 9.592222e-01 1.994548e-01
1.845000e+10 9.599715e-01 1.960436e-01
1.852500e+10 9.607058e-01 1.926439e-01
1.860000e+10 9.614252e-01 1.892555e-01
1.867500e+10 9.621300e-01 1.858783e-01
1.875000e+10 9.628205e-01 1.825122e-01
1.882500e+10 9.634968e-01 1.791569e-01
1.890000e+10 9.641592e-01 1.758123e-01
1.897500e+10 9.648078e-01 1.724782e-01
1.905000e+10 9.654429e-01 1.691545e-01
1.912500e+10 9.660646e-01 1.658409e-01
1.920000e+10 9.666732e-01 1.625374e-01
1.927500e+10 9.672686e-01 1.592436e-01
1.935000e+10 9.678512e-01 1.559595e-01
1.942500e+10 9.684209e-01 1.526848e-01
1.950000e+10 9.689780e-01 1.494194e-01
1.957500e+10 9.695224e-01 1.461631e-01
1.965000e+10 9.700544e-01 1.429158e-01
1.972500e+10 9.705740e-01 1.396772e-01
1.980000e+10 9.710811e-01 1.364472e-01
1.987500e+10 9.715760e-01 1.332258e-01
1.995000e+10 9.720587e-01 1.300126e-01
2.002500e+10 9.725291e-01 1.268077e-01
2.010000e+10 9.729873e-01 1.236109e-01
2.017500e+10 9.734333e-01 1.204220e-01
2.025000e+10 9.738672e-01 1.172410e-01
2.032500e+10 9.742889e-01 1.140679e-01
2.040000e+10 9.746986e-01 1.109024e-01
2.047500e+10 9.750961e-01 1.077446e-01
2.055000e+10 9.754814e-01 1.045944e-01
2.062500e+10 9.758547e-01 1.014517e-01
2.070000e+10 9.762158e-01 9.831656e-02
2.077500e+10 9.765649e-01 9.518891e-02
2.085000e+10 9.769018e-01 9.206876e-02
2.092500e+10 9.772267e-01 8.895609e-02
2.100000e+10 9.775395e-01 8.585093e-02
2.107500e+10 9.778403e-01 8.275328e-02
2.115000e+10 9.781291e-01 7.966317e-02
2.122500e+10 9.784060e-01 7.658063e-02
2.130000e+10 9.786709e-01 7.350571e-02
2.137500e+10 9.789240e-01 7.043845e-02
2.145000e+10 9.791653e-01 6.737889e-02
2.152500e+10 9.793949e-01 6.432709e-02
2.160000e+10 9.796129e-01 6.128309e-02
2.167500e+10 9.798193e-01 5.824697e-02
2.175000e+10 9.800144e-01 5.521875e-02
2.182500e+10 9.801981e-01 5.219851e-02
2.190000e+10 9.803707e-01 4.918628e-02
2.197500e+10 9.805322e-01 4.618211e-02
2.205000e+10 9.806829e-01 4.318604e-02
2.212500e+10 9.808228e-01 4.019810e-02
2.220000e+10 9.809522e-01 3.721832e-02
2.227500e+10 9.810712e-01 3.424671e-02
2.235000e+10 9.811800e-01 3.128329e-02
2.242500e+10 9.812788e-01 2.832804e-02
2.250000e+10 9.813677e-01 2.538096e-02
2.257500e+10 9.814470e-01 2.244202e-02
2.265000e+10 9.815168e-01 1.951118e-02
2.272500e+10 9.815774e-01 1.658840e-02
2.280000e+10 9.816289e-01 1.367360e-02
2.287500e+10 9.816716e-01 1.076673e-02
2.295000e+10 9.817056e-01 7.867682e-03
2.302500e+10 9.817311e-01 4.976364e-03
2.310000e+10 9.817483e-01 2.092660e-03
2.317500e+10 9.817573e-01 -7.835540e-04
2.325000e+10 9.817584e-01 -3.652415e-03
2.332500e+10 9.817517e-01 -6.514070e-03
2.340000e+10 9.817373e-01 -9.368678e-03
2.347500e+10 9.817154e-01 -1.221641e-02
2.355000e+10 9.816861e-01 -1.505743e-02
2.362500e+10 9.816495e-01 -1.789192e-02
2.370000e+10 9.816057e-01 -2.072009e-02
2.377500e+10 9.815547e-01 -2.354210e-02
2.385000e+10 9.814967e-01 -2.635817e-02
2.392500e+10 9.814317e-01 -2.916849e-02
2.400000e+10 9.813596e-01 -3.197325e-02
2.407500e+10 9.812806e-01 -3.477265e-02
2.415000e+10 9.811947e-01 -3.756689e-02
2.422500e+10 9.811017e-01 -4.035614e-02
2.430000e+10 9.810017e-01 -4.314060e-02
2.437500e+10 9.808946e-01 -4.592042e-02
2.445000e+10 9.807804e-01 -4.869579e-02
2.452500e+10 9.806589e-01 -5.146684e-02
2.460000e+10 9.805301e-01 -5.423372e-02
2.467500e+10 9.803939e-01 -5.699656e-02
2.475000e+10 9.802502e-01 -5.975547e-02
2.482500e+10 9.800988e-01 -6.251055e-02
2.490000e+10 9.799396e-01 -6.526187e-02
2.497500e+10 9.797724e-01 -6.800949e-02
2.505000e+10 9.795972e-01 -7.075347e-02
2.512500e+10 9.794138e-01 -7.349381e-02
2.520000e+10 9.792221e-01 -7.623054e-02
2.527500e+10 9.790218e-01 -7.896364e-02
2.535000e+10 9.788129e-01 -8.169306e-02
2.542500e+10 9.785952e-01 -8.441877e-02
2.550000e+10 9.783686e-01 -8.714069e-02
2.557500e+10 9.781330e-01 -8.985873e-02
2.565000e+10 9.778883e-01 -9.257279e-02
2.572500e+10 9.776344e-01 -9.528275e-02
2.580000e+10 9.773711e-01 -9.798847e-02
2.587500e+10 9.770985e-01 -1.006898e-01
2.595000e+10 9.768165e-01 -1.033866e-01
2.602500e+10 9.765251e-01 -1.060787e-01
2.610000e+10 9.762242e-01 -1.087658e-01
2.617500e+10 9.759139e-01 -1.114479e-01
2.625000e+10 9.755942e-01 -1.141248e-01
2.632500e+10 9.752652e-01 -1.167962e-01
2.640000e+10 9.749269e-01 -1.194619e-01
2.647500e+10 9.745795e-01 -1.221218e-01
2.655000e+10 9.742230e-01 -1.247757e-01
2.662500e+10 9.738577e-01 -1.274234e-01
2.670000e+10 9.734837e-01 -1.300648e-01
2.677500e+10 9.731011e-01 -1.326997e-01
2.685000e+10 9.727103e-01 -1.353280e-01
2.692500e+10 9.723114e-01 -1.379496e-01
2.700000e+10 9.719047e-01 -1.405643e-01
2.707500e+10 9.714904e-01 -1.431721e-01
2.715000e+10 9.710689e-01 -1.457729e-01
2.722500e+10 9.706403e-01 -1.483668e-01
2.730000e+10 9.702051e-01 -1.509537e-01
2.737500e+10 9.697634e-01 -1.535337e-01
2.745000e+10 9.693156e-01 -1.561067e-01
2.752500e+10 9.688621e-01 -1.586729e-01
2.760000e+10 9.684030e-01 -1.612325e-01
2.767500e+10 9.679387e-01 -1.637855e-01
2.775000e+10 9.674695e-01 -1.663321e-01
2.782500e+10 9.669956e-01 -1.688726e-01
2.790000e+10 9.665173e-01 -1.714071e-01
2.797500e+10 9.660348e-01 -1.739359e-01
2.805000e+10 9.655484e-01 -1.764594e-01
2.812500e+10 9.650583e-01 -1.789777e-01
2.820000e+10 9.645645e-01 -1.814913e-01
2.827500e+10 9.640673e-01 -1.840005e-01
2.835000e+10 9.635667e-01 -1.865056e-01
2.842500e+10 9.630628e-01 -1.890070e-01
2.850000e+10 9.625557e-01 -1.915051e-01
2.857500e+10 9.620453e-01 -1.940004e-01
2.865000e+10 9.615316e-01 -1.964931e-01
2.872500e+10 9.610144e-01 -1.989838e-01
2.880000e+10 9.604938e-01 -2.014726e-01
2.887500e+10 9.599695e-01 -2.039602e-01
2.895000e+10 9.594414e-01 -2.064467e-01
2.902500e+10 9.589091e-01 -2.089327e-01
2.910000e+10 9.583724e-01 -2.114183e-01
2.917500e+10 9.578310e-01 -2.139038e-01
2.925000e+10 9.572846e-01 -2.163896e-01
2.932500e+10 9.567328e-01 -2.188759e-01
2.940000e+10 9.561751e-01 -2.213629e-01
2.947500e+10 9.556113e-01 -2.238507e-01
2.955000e+10 9.550407e-01 -2.263395e-01
2.962500e+10 9.544630e-01 -2.288292e-01
2.970000e+10 9.538776e-01 -2.313200e-01
2.977500e+10 9.532842e-01 -2.338117e-01
2.985000e+10 9.526822e-01 -2.363044e-01
2.992500e+10 9.520711e-01 -2.387978e-01
3.000000e+10 9.514505e-01 -2.412917e-01
